3 
4 
5  16 31 46 
6  01 16 28 35 43 50 56 
7  04 11 19 26 34 41 49 56 
8  04 11 19 26 34 41 49 56 
9  04 11 19 26 34 41 49 56 
10  04 11 19 26 34 41 49 56 
11  04 11 19 26 34 41 49 56 
12  04 11 19 26 34 41 49 56 
13  05 13 20 27 35 42 50 57 
14  05 12 20 27 35 42 50 57 
15  05 12 19 27 34 42 49 57 
16  04 12 19 27 34 42 49 57 
17  04 12 19 27 34 42 49 57 
18  04 12 19 27 34 42 49 57 
19  03 10 17 26 34 42 49 57 
20  05 12 19 27 34 47 
21  02 17 32 47 
22  02 17 30 45 58 
23 
